examples/con/graph-300-43.dimacs
p cnf 300 1822
c generated by ./gc2s.pl graph-300-43.param
c find W : set of vertices
c find C : set of vertices
c i in C is represented by literal  i (1..n)
c i in W is represented by literal -i (1..n)
c such that 1 in C
1 0
c such that forAll e in E . min(e) in C <-> max(e) in C
c when {1,2} is in E, we add the following two clauses:
c 1 -> 2
c 1 <- 2
-18 193 0
18 -193 0
-233 265 0
233 -265 0
-125 64 0
125 -64 0
-109 149 0
109 -149 0
-23 297 0
23 -297 0
-273 60 0
273 -60 0
-256 52 0
256 -52 0
-174 292 0
174 -292 0
-131 190 0
131 -190 0
-108 215 0
108 -215 0
-24 56 0
24 -56 0
-157 94 0
157 -94 0
-169 69 0
169 -69 0
-155 269 0
155 -269 0
-199 242 0
199 -242 0
-216 299 0
216 -299 0
-188 53 0
188 -53 0
-144 187 0
144 -187 0
-39 79 0
39 -79 0
-26 94 0
26 -94 0
-118 168 0
118 -168 0
-114 175 0
114 -175 0
-51 69 0
51 -69 0
-154 190 0
154 -190 0
-239 3 0
239 -3 0
-63 80 0
63 -80 0
-27 297 0
27 -297 0
-104 153 0
104 -153 0
-268 56 0
268 -56 0
-30 43 0
30 -43 0
-217 92 0
217 -92 0
-200 8 0
200 -8 0
-147 185 0
147 -185 0
-234 60 0
234 -60 0
-187 67 0
187 -67 0
-137 162 0
137 -162 0
-116 257 0
116 -257 0
-151 154 0
151 -154 0
-266 70 0
266 -70 0
-103 202 0
103 -202 0
-192 80 0
192 -80 0
-189 284 0
189 -284 0
-186 41 0
186 -41 0
-257 33 0
257 -33 0
-22 221 0
22 -221 0
-201 71 0
201 -71 0
-257 7 0
257 -7 0
-153 222 0
153 -222 0
-41 54 0
41 -54 0
-123 180 0
123 -180 0
-168 204 0
168 -204 0
-12 135 0
12 -135 0
-100 166 0
100 -166 0
-105 149 0
105 -149 0
-176 298 0
176 -298 0
-135 174 0
135 -174 0
-197 56 0
197 -56 0
-173 82 0
173 -82 0
-143 288 0
143 -288 0
-120 125 0
120 -125 0
-134 15 0
134 -15 0
-231 299 0
231 -299 0
-158 236 0
158 -236 0
-296 35 0
296 -35 0
-153 44 0
153 -44 0
-142 7 0
142 -7 0
-273 288 0
273 -288 0
-223 251 0
223 -251 0
-171 230 0
171 -230 0
-154 230 0
154 -230 0
-240 274 0
240 -274 0
-19 261 0
19 -261 0
-115 256 0
115 -256 0
-11 65 0
11 -65 0
-285 92 0
285 -92 0
-131 239 0
131 -239 0
-205 265 0
205 -265 0
-16 189 0
16 -189 0
-159 79 0
159 -79 0
-182 75 0
182 -75 0
-102 29 0
102 -29 0
-126 2 0
126 -2 0
-179 72 0
179 -72 0
-193 29 0
193 -29 0
-132 144 0
132 -144 0
-133 34 0
133 -34 0
-263 96 0
263 -96 0
-106 262 0
106 -262 0
-195 222 0
195 -222 0
-23 32 0
23 -32 0
-100 77 0
100 -77 0
-210 271 0
210 -271 0
-259 28 0
259 -28 0
-148 172 0
148 -172 0
-211 35 0
211 -35 0
-144 43 0
144 -43 0
-193 272 0
193 -272 0
-68 73 0
68 -73 0
-206 207 0
206 -207 0
-286 50 0
286 -50 0
-20 213 0
20 -213 0
-163 265 0
163 -265 0
-108 230 0
108 -230 0
-247 92 0
247 -92 0
-185 60 0
185 -60 0
-187 38 0
187 -38 0
-159 193 0
159 -193 0
-45 71 0
45 -71 0
-14 61 0
14 -61 0
-153 19 0
153 -19 0
-123 247 0
123 -247 0
-244 78 0
244 -78 0
-141 203 0
141 -203 0
-170 208 0
170 -208 0
-226 56 0
226 -56 0
-110 34 0
110 -34 0
-189 221 0
189 -221 0
-157 69 0
157 -69 0
-102 285 0
102 -285 0
-139 230 0
139 -230 0
-135 61 0
135 -61 0
-110 137 0
110 -137 0
-41 49 0
41 -49 0
-246 271 0
246 -271 0
-193 73 0
193 -73 0
-205 97 0
205 -97 0
-108 143 0
108 -143 0
-118 91 0
118 -91 0
-15 255 0
15 -255 0
-259 291 0
259 -291 0
-127 144 0
127 -144 0
-114 286 0
114 -286 0
-204 74 0
204 -74 0
-283 29 0
283 -29 0
-176 271 0
176 -271 0
-240 39 0
240 -39 0
-132 255 0
132 -255 0
-180 75 0
180 -75 0
-17 97 0
17 -97 0
-160 72 0
160 -72 0
-162 42 0
162 -42 0
-127 282 0
127 -282 0
-126 262 0
126 -262 0
-248 32 0
248 -32 0
-209 283 0
209 -283 0
-114 214 0
114 -214 0
-149 175 0
149 -175 0
-204 290 0
204 -290 0
-201 291 0
201 -291 0
-143 82 0
143 -82 0
-22 70 0
22 -70 0
-152 285 0
152 -285 0
-287 74 0
287 -74 0
-118 221 0
118 -221 0
-53 75 0
53 -75 0
-268 28 0
268 -28 0
-263 67 0
263 -67 0
-258 83 0
258 -83 0
-228 91 0
228 -91 0
-153 17 0
153 -17 0
-118 130 0
118 -130 0
-123 261 0
123 -261 0
-131 24 0
131 -24 0
-126 279 0
126 -279 0
-63 92 0
63 -92 0
-140 190 0
140 -190 0
-168 29 0
168 -29 0
-13 242 0
13 -242 0
-14 298 0
14 -298 0
-235 248 0
235 -248 0
-115 213 0
115 -213 0
-186 21 0
186 -21 0
-189 47 0
189 -47 0
-235 280 0
235 -280 0
-34 75 0
34 -75 0
-1 266 0
1 -266 0
-228 55 0
228 -55 0
-174 88 0
174 -88 0
-108 123 0
108 -123 0
-238 281 0
238 -281 0
-189 253 0
189 -253 0
-148 206 0
148 -206 0
-275 289 0
275 -289 0
-136 22 0
136 -22 0
-276 94 0
276 -94 0
-230 31 0
230 -31 0
-161 34 0
161 -34 0
-105 118 0
105 -118 0
-109 72 0
109 -72 0
-125 7 0
125 -7 0
-177 199 0
177 -199 0
-102 184 0
102 -184 0
-128 35 0
128 -35 0
-201 250 0
201 -250 0
-101 292 0
101 -292 0
-216 279 0
216 -279 0
-213 261 0
213 -261 0
-17 198 0
17 -198 0
-148 40 0
148 -40 0
-118 147 0
118 -147 0
-109 217 0
109 -217 0
-18 61 0
18 -61 0
-182 254 0
182 -254 0
-238 5 0
238 -5 0
-34 67 0
34 -67 0
-228 289 0
228 -289 0
-135 199 0
135 -199 0
-31 68 0
31 -68 0
-231 243 0
231 -243 0
-180 81 0
180 -81 0
-105 217 0
105 -217 0
-155 266 0
155 -266 0
-187 195 0
187 -195 0
-19 58 0
19 -58 0
-150 20 0
150 -20 0
-179 215 0
179 -215 0
-135 141 0
135 -141 0
-267 48 0
267 -48 0
-197 261 0
197 -261 0
-118 248 0
118 -248 0
-294 40 0
294 -40 0
-130 82 0
130 -82 0
-119 22 0
119 -22 0
-125 33 0
125 -33 0
-210 64 0
210 -64 0
-140 43 0
140 -43 0
-15 300 0
15 -300 0
-171 261 0
171 -261 0
-242 260 0
242 -260 0
-10 262 0
10 -262 0
-42 88 0
42 -88 0
-171 31 0
171 -31 0
-154 261 0
154 -261 0
-64 91 0
64 -91 0
-109 269 0
109 -269 0
-140 79 0
140 -79 0
-218 239 0
218 -239 0
-115 249 0
115 -249 0
-121 171 0
121 -171 0
-212 87 0
212 -87 0
-293 56 0
293 -56 0
-191 99 0
191 -99 0
-100 88 0
100 -88 0
-221 289 0
221 -289 0
-31 61 0
31 -61 0
-196 23 0
196 -23 0
-189 40 0
189 -40 0
-24 279 0
24 -279 0
-11 238 0
11 -238 0
-185 249 0
185 -249 0
-11 188 0
11 -188 0
-211 76 0
211 -76 0
-172 75 0
172 -75 0
-168 270 0
168 -270 0
-100 147 0
100 -147 0
-141 86 0
141 -86 0
-241 83 0
241 -83 0
-136 139 0
136 -139 0
-214 41 0
214 -41 0
-297 4 0
297 -4 0
-194 99 0
194 -99 0
-286 296 0
286 -296 0
-216 291 0
216 -291 0
-257 32 0
257 -32 0
-110 119 0
110 -119 0
-195 58 0
195 -58 0
-115 219 0
115 -219 0
-173 194 0
173 -194 0
-174 31 0
174 -31 0
-21 272 0
21 -272 0
-101 73 0
101 -73 0
-170 70 0
170 -70 0
-112 298 0
112 -298 0
-238 55 0
238 -55 0
-241 3 0
241 -3 0
-182 210 0
182 -210 0
-52 92 0
52 -92 0
-126 187 0
126 -187 0
-229 63 0
229 -63 0
-246 52 0
246 -52 0
-145 70 0
145 -70 0
-117 49 0
117 -49 0
-127 26 0
127 -26 0
-166 46 0
166 -46 0
-108 59 0
108 -59 0
-285 37 0
285 -37 0
-18 295 0
18 -295 0
-11 78 0
11 -78 0
-109 215 0
109 -215 0
-104 70 0
104 -70 0
-120 219 0
120 -219 0
-177 212 0
177 -212 0
-38 48 0
38 -48 0
-187 249 0
187 -249 0
-45 81 0
45 -81 0
-120 168 0
120 -168 0
-254 281 0
254 -281 0
-245 61 0
245 -61 0
-136 98 0
136 -98 0
-133 31 0
133 -31 0
-27 88 0
27 -88 0
-181 62 0
181 -62 0
-166 252 0
166 -252 0
-161 298 0
161 -298 0
-126 60 0
126 -60 0
-211 26 0
211 -26 0
-58 72 0
58 -72 0
-100 299 0
100 -299 0
-62 81 0
62 -81 0
-22 60 0
22 -60 0
-148 161 0
148 -161 0
-269 35 0
269 -35 0
-115 136 0
115 -136 0
-14 165 0
14 -165 0
-248 89 0
248 -89 0
-130 293 0
130 -293 0
-54 69 0
54 -69 0
-131 132 0
131 -132 0
-187 244 0
187 -244 0
-147 96 0
147 -96 0
-276 45 0
276 -45 0
-256 34 0
256 -34 0
-7 92 0
7 -92 0
-278 56 0
278 -56 0
-131 30 0
131 -30 0
-103 118 0
103 -118 0
-257 92 0
257 -92 0
-272 32 0
272 -32 0
-129 285 0
129 -285 0
-179 77 0
179 -77 0
-240 9 0
240 -9 0
-148 262 0
148 -262 0
-241 287 0
241 -287 0
-134 151 0
134 -151 0
-234 241 0
234 -241 0
-205 248 0
205 -248 0
-202 211 0
202 -211 0
-165 256 0
165 -256 0
-265 269 0
265 -269 0
-122 41 0
122 -41 0
-146 227 0
146 -227 0
-106 85 0
106 -85 0
-129 202 0
129 -202 0
-129 39 0
129 -39 0
-109 189 0
109 -189 0
-134 74 0
134 -74 0
-100 22 0
100 -22 0
-255 39 0
255 -39 0
-190 250 0
190 -250 0
-200 242 0
200 -242 0
-43 52 0
43 -52 0
-16 86 0
16 -86 0
-10 131 0
10 -131 0
-101 36 0
101 -36 0
-227 279 0
227 -279 0
-196 94 0
196 -94 0
-188 294 0
188 -294 0
-123 297 0
123 -297 0
-121 239 0
121 -239 0
-110 135 0
110 -135 0
-248 58 0
248 -58 0
-103 178 0
103 -178 0
-221 290 0
221 -290 0
-211 64 0
211 -64 0
-202 298 0
202 -298 0
-205 71 0
205 -71 0
-131 82 0
131 -82 0
-34 93 0
34 -93 0
-102 60 0
102 -60 0
-27 295 0
27 -295 0
-179 205 0
179 -205 0
-199 35 0
199 -35 0
-146 186 0
146 -186 0
-160 23 0
160 -23 0
-194 33 0
194 -33 0
-192 252 0
192 -252 0
-191 80 0
191 -80 0
-187 52 0
187 -52 0
-199 255 0
199 -255 0
-106 192 0
106 -192 0
-228 23 0
228 -23 0
-152 264 0
152 -264 0
-248 83 0
248 -83 0
-240 281 0
240 -281 0
-188 65 0
188 -65 0
-113 211 0
113 -211 0
-203 237 0
203 -237 0
-159 22 0
159 -22 0
-156 283 0
156 -283 0
-167 182 0
167 -182 0
-137 51 0
137 -51 0
-24 54 0
24 -54 0
-204 32 0
204 -32 0
-160 173 0
160 -173 0
-171 34 0
171 -34 0
-27 33 0
27 -33 0
-113 97 0
113 -97 0
-257 276 0
257 -276 0
-251 61 0
251 -61 0
-235 98 0
235 -98 0
-1 174 0
1 -174 0
-218 93 0
218 -93 0
-148 9 0
148 -9 0
-207 64 0
207 -64 0
-235 67 0
235 -67 0
-286 53 0
286 -53 0
-175 238 0
175 -238 0
-130 26 0
130 -26 0
-101 227 0
101 -227 0
-48 96 0
48 -96 0
-34 52 0
34 -52 0
-141 67 0
141 -67 0
-207 210 0
207 -210 0
-273 88 0
273 -88 0
-108 27 0
108 -27 0
-170 213 0
170 -213 0
-11 224 0
11 -224 0
-248 33 0
248 -33 0
-217 247 0
217 -247 0
-249 54 0
249 -54 0
-19 264 0
19 -264 0
-294 86 0
294 -86 0
-300 76 0
300 -76 0
-165 206 0
165 -206 0
-238 290 0
238 -290 0
-156 66 0
156 -66 0
-1 70 0
1 -70 0
-119 248 0
119 -248 0
-145 60 0
145 -60 0
-217 252 0
217 -252 0
-120 5 0
120 -5 0
-114 60 0
114 -60 0
-179 88 0
179 -88 0
-162 223 0
162 -223 0
-175 297 0
175 -297 0
-100 253 0
100 -253 0
-12 202 0
12 -202 0
-221 63 0
221 -63 0
-64 69 0
64 -69 0
-108 94 0
108 -94 0
-112 271 0
112 -271 0
-146 167 0
146 -167 0
-11 84 0
11 -84 0
-1 90 0
1 -90 0
-169 65 0
169 -65 0
-279 5 0
279 -5 0
-12 205 0
12 -205 0
-219 97 0
219 -97 0
-122 3 0
122 -3 0
-22 299 0
22 -299 0
-16 171 0
16 -171 0
-130 298 0
130 -298 0
-186 222 0
186 -222 0
-210 221 0
210 -221 0
-263 268 0
263 -268 0
-176 185 0
176 -185 0
-21 267 0
21 -267 0
-153 21 0
153 -21 0
-147 288 0
147 -288 0
-114 22 0
114 -22 0
-219 48 0
219 -48 0
-280 56 0
280 -56 0
-76 89 0
76 -89 0
-182 290 0
182 -290 0
-202 206 0
202 -206 0
-293 35 0
293 -35 0
-171 8 0
171 -8 0
-260 87 0
260 -87 0
-141 293 0
141 -293 0
-157 50 0
157 -50 0
-11 276 0
11 -276 0
-138 184 0
138 -184 0
-106 237 0
106 -237 0
-191 90 0
191 -90 0
-182 38 0
182 -38 0
-236 97 0
236 -97 0
-134 268 0
134 -268 0
-127 66 0
127 -66 0
-1 152 0
1 -152 0
-246 93 0
246 -93 0
-185 194 0
185 -194 0
-108 139 0
108 -139 0
-135 91 0
135 -91 0
-137 243 0
137 -243 0
-236 244 0
236 -244 0
-193 78 0
193 -78 0
-102 107 0
102 -107 0
-151 237 0
151 -237 0
-110 97 0
110 -97 0
-49 56 0
49 -56 0
-211 52 0
211 -52 0
-212 29 0
212 -29 0
-197 280 0
197 -280 0
-108 221 0
108 -221 0
-153 284 0
153 -284 0
-128 42 0
128 -42 0
-114 58 0
114 -58 0
-15 234 0
15 -234 0
-57 94 0
57 -94 0
-189 239 0
189 -239 0
-16 272 0
16 -272 0
-111 137 0
111 -137 0
-151 26 0
151 -26 0
-246 297 0
246 -297 0
-175 235 0
175 -235 0
-58 81 0
58 -81 0
-14 30 0
14 -30 0
-272 86 0
272 -86 0
-296 81 0
296 -81 0
-251 84 0
251 -84 0
-198 79 0
198 -79 0
-26 283 0
26 -283 0
-204 268 0
204 -268 0
-160 2 0
160 -2 0
-215 79 0
215 -79 0
-56 64 0
56 -64 0
-212 248 0
212 -248 0
-265 270 0
265 -270 0
-167 285 0
167 -285 0
-191 214 0
191 -214 0
-10 266 0
10 -266 0
-145 162 0
145 -162 0
-106 94 0
106 -94 0
-150 82 0
150 -82 0
-212 284 0
212 -284 0
-120 69 0
120 -69 0
-215 218 0
215 -218 0
-121 237 0
121 -237 0
-191 208 0
191 -208 0
-104 19 0
104 -19 0
-195 289 0
195 -289 0
-152 251 0
152 -251 0
-31 57 0
31 -57 0
-117 15 0
117 -15 0
-222 6 0
222 -6 0
-249 62 0
249 -62 0
-177 41 0
177 -41 0
-122 29 0
122 -29 0
-208 234 0
208 -234 0
-109 232 0
109 -232 0
-103 223 0
103 -223 0
-195 294 0
195 -294 0
-128 62 0
128 -62 0
-238 269 0
238 -269 0
-172 213 0
172 -213 0
-230 262 0
230 -262 0
-203 41 0
203 -41 0
-103 20 0
103 -20 0
-104 296 0
104 -296 0
-15 256 0
15 -256 0
-195 216 0
195 -216 0
-171 203 0
171 -203 0
-174 197 0
174 -197 0
-158 66 0
158 -66 0
-10 108 0
10 -108 0
-256 32 0
256 -32 0
-253 99 0
253 -99 0
-206 253 0
206 -253 0
-201 5 0
201 -5 0
-279 31 0
279 -31 0
-223 247 0
223 -247 0
-114 28 0
114 -28 0
-191 223 0
191 -223 0
-111 165 0
111 -165 0
-152 61 0
152 -61 0
-37 41 0
37 -41 0
-153 251 0
153 -251 0
-111 154 0
111 -154 0
-295 30 0
295 -30 0
-190 3 0
190 -3 0
-119 212 0
119 -212 0
-145 202 0
145 -202 0
-258 98 0
258 -98 0
-40 95 0
40 -95 0
-236 254 0
236 -254 0
-144 39 0
144 -39 0
-125 278 0
125 -278 0
-103 136 0
103 -136 0
-71 88 0
71 -88 0
-171 241 0
171 -241 0
-43 55 0
43 -55 0
-161 99 0
161 -99 0
-220 33 0
220 -33 0
-115 146 0
115 -146 0
-256 82 0
256 -82 0
-175 6 0
175 -6 0
-102 270 0
102 -270 0
-246 83 0
246 -83 0
-106 49 0
106 -49 0
-77 94 0
77 -94 0
-190 31 0
190 -31 0
-274 287 0
274 -287 0
-30 93 0
30 -93 0
-152 90 0
152 -90 0
-162 8 0
162 -8 0
-15 290 0
15 -290 0
-159 39 0
159 -39 0
-242 291 0
242 -291 0
-110 83 0
110 -83 0
-40 57 0
40 -57 0
-295 9 0
295 -9 0
-142 193 0
142 -193 0
-184 191 0
184 -191 0
-143 178 0
143 -178 0
-157 64 0
157 -64 0
-169 99 0
169 -99 0
-197 63 0
197 -63 0
-248 291 0
248 -291 0
-198 278 0
198 -278 0
-18 268 0
18 -268 0
-278 42 0
278 -42 0
-208 31 0
208 -31 0
-18 274 0
18 -274 0
-223 81 0
223 -81 0
-231 68 0
231 -68 0
-17 59 0
17 -59 0
-140 251 0
140 -251 0
-115 149 0
115 -149 0
-128 203 0
128 -203 0
-113 52 0
113 -52 0
-189 261 0
189 -261 0
-160 284 0
160 -284 0
-202 94 0
202 -94 0
-215 244 0
215 -244 0
-149 230 0
149 -230 0
-81 98 0
81 -98 0
-12 213 0
12 -213 0
-242 49 0
242 -49 0
-27 97 0
27 -97 0
-11 12 0
11 -12 0
-239 252 0
239 -252 0
-23 25 0
23 -25 0
-119 21 0
119 -21 0
-109 21 0
109 -21 0
-194 91 0
194 -91 0
-170 26 0
170 -26 0
-217 220 0
217 -220 0
-178 61 0
178 -61 0
-88 90 0
88 -90 0
-172 28 0
172 -28 0
-58 78 0
58 -78 0
-137 69 0
137 -69 0
-170 215 0
170 -215 0
-110 64 0
110 -64 0
-11 130 0
11 -130 0
-258 57 0
258 -57 0
-252 261 0
252 -261 0
-270 284 0
270 -284 0
-230 290 0
230 -290 0
-161 87 0
161 -87 0
-216 39 0
216 -39 0
-131 53 0
131 -53 0
-266 7 0
266 -7 0
-115 68 0
115 -68 0
-104 33 0
104 -33 0
-184 2 0
184 -2 0
-241 45 0
241 -45 0
-208 91 0
208 -91 0
-106 176 0
106 -176 0
-220 9 0
220 -9 0
-74 80 0
74 -80 0
-205 272 0
205 -272 0
-207 277 0
207 -277 0
-206 294 0
206 -294 0
-267 57 0
267 -57 0
-112 174 0
112 -174 0
-217 50 0
217 -50 0
-101 206 0
101 -206 0
-125 96 0
125 -96 0
-22 271 0
22 -271 0
-128 251 0
128 -251 0
-60 72 0
60 -72 0
-124 57 0
124 -57 0
-176 245 0
176 -245 0
-249 91 0
249 -91 0
-217 249 0
217 -249 0
-268 291 0
268 -291 0
-181 87 0
181 -87 0
-160 300 0
160 -300 0
-14 198 0
14 -198 0
-283 46 0
283 -46 0
-186 81 0
186 -81 0
-140 89 0
140 -89 0
-223 91 0
223 -91 0
-138 281 0
138 -281 0
-270 53 0
270 -53 0
-211 283 0
211 -283 0
-175 294 0
175 -294 0
-181 257 0
181 -257 0
-157 99 0
157 -99 0
-178 206 0
178 -206 0
-207 5 0
207 -5 0
-251 60 0
251 -60 0
-144 215 0
144 -215 0
-147 233 0
147 -233 0
-124 250 0
124 -250 0
-174 92 0
174 -92 0
-174 21 0
174 -21 0
-10 161 0
10 -161 0
-282 34 0
282 -34 0
-257 91 0
257 -91 0
-229 64 0
229 -64 0
-18 255 0
18 -255 0
-131 237 0
131 -237 0
-243 89 0
243 -89 0
-13 234 0
13 -234 0
-49 69 0
49 -69 0
-111 83 0
111 -83 0
-249 98 0
249 -98 0
-2 276 0
2 -276 0
-247 293 0
247 -293 0
-108 220 0
108 -220 0
-194 59 0
194 -59 0
-109 44 0
109 -44 0
-247 256 0
247 -256 0
-293 62 0
293 -62 0
-162 93 0
162 -93 0
-180 182 0
180 -182 0
-134 228 0
134 -228 0
-116 298 0
116 -298 0
-207 86 0
207 -86 0
-246 92 0
246 -92 0
-10 181 0
10 -181 0
-56 77 0
56 -77 0
-116 249 0
116 -249 0
-288 75 0
288 -75 0
-168 202 0
168 -202 0
-213 273 0
213 -273 0
-242 258 0
242 -258 0
-21 40 0
21 -40 0
-182 207 0
182 -207 0
-196 83 0
196 -83 0
-30 75 0
30 -75 0
-156 84 0
156 -84 0
-212 240 0
212 -240 0
-292 78 0
292 -78 0
-261 50 0
261 -50 0
-250 53 0
250 -53 0
-229 39 0
229 -39 0
-127 36 0
127 -36 0
-226 237 0
226 -237 0
-191 200 0
191 -200 0
-294 99 0
294 -99 0
-141 83 0
141 -83 0
-165 56 0
165 -56 0
-118 171 0
118 -171 0
-29 89 0
29 -89 0
-8 92 0
8 -92 0
-11 90 0
11 -90 0
-247 4 0
247 -4 0
-215 50 0
215 -50 0
-159 210 0
159 -210 0
-260 38 0
260 -38 0
-262 3 0
262 -3 0
-252 47 0
252 -47 0
-160 211 0
160 -211 0
-147 56 0
147 -56 0
-183 81 0
183 -81 0
-281 65 0
281 -65 0
-11 30 0
11 -30 0
-152 78 0
152 -78 0
-103 88 0
103 -88 0
-179 246 0
179 -246 0
-233 275 0
233 -275 0
-201 77 0
201 -77 0
-160 58 0
160 -58 0
-109 147 0
109 -147 0
-257 52 0
257 -52 0
-233 55 0
233 -55 0
-271 38 0
271 -38 0
-175 283 0
175 -283 0
-135 86 0
135 -86 0
-47 54 0
47 -54 0
-121 175 0
121 -175 0
-36 49 0
36 -49 0
-240 5 0
240 -5 0
-108 240 0
108 -240 0
-147 37 0
147 -37 0
-189 266 0
189 -266 0
-17 290 0
17 -290 0
-120 167 0
120 -167 0
-160 271 0
160 -271 0
-221 257 0
221 -257 0
-214 229 0
214 -229 0
-103 226 0
103 -226 0
-299 61 0
299 -61 0
-284 96 0
284 -96 0
-102 172 0
102 -172 0
-232 74 0
232 -74 0
-135 169 0
135 -169 0
-104 283 0
104 -283 0
-163 230 0
163 -230 0
-51 53 0
51 -53 0
-152 240 0
152 -240 0
-159 267 0
159 -267 0
-272 72 0
272 -72 0
-168 179 0
168 -179 0
-139 278 0
139 -278 0
-105 115 0
105 -115 0
-38 43 0
38 -43 0
-173 286 0
173 -286 0
-267 72 0
267 -72 0
-84 89 0
84 -89 0
-30 76 0
30 -76 0
-71 81 0
71 -81 0
-155 299 0
155 -299 0
-106 20 0
106 -20 0
-12 144 0
12 -144 0
-18 69 0
18 -69 0
-83 85 0
83 -85 0
-181 292 0
181 -292 0
-115 242 0
115 -242 0
-189 61 0
189 -61 0
-133 214 0
133 -214 0
-122 145 0
122 -145 0
-28 7 0
28 -7 0
-100 170 0
100 -170 0
-123 56 0
123 -56 0
-158 71 0
158 -71 0
-187 217 0
187 -217 0
-270 75 0
270 -75 0
-155 54 0
155 -54 0
-168 234 0
168 -234 0
-161 171 0
161 -171 0
-179 19 0
179 -19 0
-114 2 0
114 -2 0
-51 59 0
51 -59 0
-193 221 0
193 -221 0
-105 279 0
105 -279 0
-218 250 0
218 -250 0
-137 22 0
137 -22 0
-267 60 0
267 -60 0
-256 283 0
256 -283 0
-101 28 0
101 -28 0
-101 99 0
101 -99 0
-190 88 0
190 -88 0
-252 69 0
252 -69 0
-140 273 0
140 -273 0
-140 288 0
140 -288 0
-176 81 0
176 -81 0
-137 291 0
137 -291 0
-13 46 0
13 -46 0
-201 63 0
201 -63 0
-33 85 0
33 -85 0
-132 270 0
132 -270 0
-261 60 0
261 -60 0
-141 39 0
141 -39 0
-114 21 0
114 -21 0
-51 84 0
51 -84 0
-146 267 0
146 -267 0
-243 274 0
243 -274 0
-135 265 0
135 -265 0
-137 25 0
137 -25 0
-230 244 0
230 -244 0
-194 49 0
194 -49 0
-228 87 0
228 -87 0
-194 241 0
194 -241 0
-143 3 0
143 -3 0
-284 289 0
284 -289 0
-117 275 0
117 -275 0
-200 267 0
200 -267 0
-154 293 0
154 -293 0
-76 85 0
76 -85 0
-222 272 0
222 -272 0
-108 209 0
108 -209 0
-135 250 0
135 -250 0
-13 152 0
13 -152 0
-120 189 0
120 -189 0
-219 276 0
219 -276 0
-187 51 0
187 -51 0
-14 96 0
14 -96 0
-254 260 0
254 -260 0
-123 246 0
123 -246 0
-247 281 0
247 -281 0
-161 225 0
161 -225 0
-206 281 0
206 -281 0
-242 243 0
242 -243 0
-145 292 0
145 -292 0
-13 155 0
13 -155 0
-208 277 0
208 -277 0
-252 57 0
252 -57 0
-265 79 0
265 -79 0
-156 217 0
156 -217 0
-210 62 0
210 -62 0
-153 160 0
153 -160 0
-118 26 0
118 -26 0
-23 277 0
23 -277 0
-203 68 0
203 -68 0
-255 53 0
255 -53 0
-180 97 0
180 -97 0
-213 256 0
213 -256 0
-236 36 0
236 -36 0
-222 277 0
222 -277 0
-119 13 0
119 -13 0
-255 8 0
255 -8 0
-169 181 0
169 -181 0
-164 207 0
164 -207 0
-157 41 0
157 -41 0
-102 229 0
102 -229 0
-187 35 0
187 -35 0
-55 82 0
55 -82 0
-241 63 0
241 -63 0
-24 6 0
24 -6 0
-200 70 0
200 -70 0
-154 200 0
154 -200 0
-177 97 0
177 -97 0
-190 47 0
190 -47 0
-177 250 0
177 -250 0
-136 179 0
136 -179 0
-44 45 0
44 -45 0
c satisfiable iff the graph is disconnected
c such that (|C| < |V|)
c -1 -2 -3 ... -n
-1 -2 -3 -4 -5 -6 -7 -8 -9 -10 -11 -12 -13 -14 -15 -16 -17 -18 -19 -20 -21 -22 -23 -24 -25 -26 -27 -28 -29 -30 -31 -32 -33 -34 -35 -36 -37 -38 -39 -40 -41 -42 -43 -44 -45 -46 -47 -48 -49 -50 -51 -52 -53 -54 -55 -56 -57 -58 -59 -60 -61 -62 -63 -64 -65 -66 -67 -68 -69 -70 -71 -72 -73 -74 -75 -76 -77 -78 -79 -80 -81 -82 -83 -84 -85 -86 -87 -88 -89 -90 -91 -92 -93 -94 -95 -96 -97 -98 -99 -100 -101 -102 -103 -104 -105 -106 -107 -108 -109 -110 -111 -112 -113 -114 -115 -116 -117 -118 -119 -120 -121 -122 -123 -124 -125 -126 -127 -128 -129 -130 -131 -132 -133 -134 -135 -136 -137 -138 -139 -140 -141 -142 -143 -144 -145 -146 -147 -148 -149 -150 -151 -152 -153 -154 -155 -156 -157 -158 -159 -160 -161 -162 -163 -164 -165 -166 -167 -168 -169 -170 -171 -172 -173 -174 -175 -176 -177 -178 -179 -180 -181 -182 -183 -184 -185 -186 -187 -188 -189 -190 -191 -192 -193 -194 -195 -196 -197 -198 -199 -200 -201 -202 -203 -204 -205 -206 -207 -208 -209 -210 -211 -212 -213 -214 -215 -216 -217 -218 -219 -220 -221 -222 -223 -224 -225 -226 -227 -228 -229 -230 -231 -232 -233 -234 -235 -236 -237 -238 -239 -240 -241 -242 -243 -244 -245 -246 -247 -248 -249 -250 -251 -252 -253 -254 -255 -256 -257 -258 -259 -260 -261 -262 -263 -264 -265 -266 -267 -268 -269 -270 -271 -272 -273 -274 -275 -276 -277 -278 -279 -280 -281 -282 -283 -284 -285 -286 -287 -288 -289 -290 -291 -292 -293 -294 -295 -296 -297 -298 -299 -300 0
