examples/con/graph-300-43.param
$ generated by rg.pl with seed 43
letting n be 300
$ 910 edges
letting E be {{44,45},{136,179},{177,250},{47,190},{97,177},{154,200},{70,200},{6,24},{63,241},{55,82},{35,187},{102,229},{41,157},{164,207},{169,181},{8,255},{13,119},{222,277},{36,236},{213,256},{97,180},{53,255},{68,203},{23,277},{26,118},{153,160},{62,210},{156,217},{79,265},{57,252},{208,277},{13,155},{145,292},{242,243},{206,281},{161,225},{247,281},{123,246},{254,260},{14,96},{51,187},{219,276},{120,189},{13,152},{135,250},{108,209},{222,272},{76,85},{154,293},{200,267},{117,275},{284,289},{3,143},{194,241},{87,228},{49,194},{230,244},{25,137},{135,265},{243,274},{146,267},{51,84},{21,114},{39,141},{60,261},{132,270},{33,85},{63,201},{13,46},{137,291},{81,176},{140,288},{140,273},{69,252},{88,190},{99,101},{28,101},{256,283},{60,267},{22,137},{218,250},{105,279},{193,221},{51,59},{2,114},{19,179},{161,171},{168,234},{54,155},{75,270},{187,217},{71,158},{56,123},{100,170},{7,28},{122,145},{133,214},{61,189},{115,242},{181,292},{83,85},{18,69},{12,144},{20,106},{155,299},{71,81},{30,76},{84,89},{72,267},{173,286},{38,43},{105,115},{139,278},{168,179},{72,272},{159,267},{152,240},{51,53},{163,230},{104,283},{135,169},{74,232},{102,172},{96,284},{61,299},{103,226},{214,229},{221,257},{160,271},{120,167},{17,290},{189,266},{37,147},{108,240},{5,240},{36,49},{121,175},{47,54},{86,135},{175,283},{38,271},{55,233},{52,257},{109,147},{58,160},{77,201},{233,275},{179,246},{88,103},{78,152},{11,30},{65,281},{81,183},{56,147},{160,211},{47,252},{3,262},{38,260},{159,210},{50,215},{4,247},{11,90},{8,92},{29,89},{118,171},{56,165},{83,141},{99,294},{191,200},{226,237},{36,127},{39,229},{53,250},{50,261},{78,292},{212,240},{84,156},{30,75},{83,196},{182,207},{21,40},{242,258},{213,273},{168,202},{75,288},{116,249},{56,77},{10,181},{92,246},{86,207},{116,298},{134,228},{180,182},{93,162},{62,293},{247,256},{44,109},{59,194},{108,220},{247,293},{2,276},{98,249},{83,111},{49,69},{13,234},{89,243},{131,237},{18,255},{64,229},{91,257},{34,282},{10,161},{21,174},{92,174},{124,250},{147,233},{144,215},{60,251},{5,207},{178,206},{99,157},{181,257},{175,294},{211,283},{53,270},{138,281},{91,223},{89,140},{81,186},{46,283},{14,198},{160,300},{87,181},{268,291},{217,249},{91,249},{176,245},{57,124},{60,72},{128,251},{22,271},{96,125},{101,206},{50,217},{112,174},{57,267},{206,294},{207,277},{205,272},{74,80},{9,220},{106,176},{91,208},{45,241},{2,184},{33,104},{68,115},{7,266},{53,131},{39,216},{87,161},{230,290},{270,284},{252,261},{57,258},{11,130},{64,110},{170,215},{69,137},{58,78},{28,172},{88,90},{61,178},{217,220},{26,170},{91,194},{21,109},{21,119},{23,25},{239,252},{11,12},{27,97},{49,242},{12,213},{81,98},{149,230},{215,244},{94,202},{160,284},{189,261},{52,113},{128,203},{115,149},{140,251},{17,59},{68,231},{81,223},{18,274},{31,208},{42,278},{18,268},{198,278},{248,291},{63,197},{99,169},{64,157},{143,178},{184,191},{142,193},{9,295},{40,57},{83,110},{242,291},{39,159},{15,290},{8,162},{90,152},{30,93},{274,287},{31,190},{77,94},{49,106},{83,246},{102,270},{6,175},{82,256},{115,146},{33,220},{99,161},{43,55},{171,241},{71,88},{103,136},{125,278},{39,144},{236,254},{40,95},{98,258},{145,202},{119,212},{3,190},{30,295},{111,154},{153,251},{37,41},{61,152},{111,165},{191,223},{28,114},{223,247},{31,279},{5,201},{206,253},{99,253},{32,256},{10,108},{66,158},{174,197},{171,203},{195,216},{15,256},{104,296},{20,103},{41,203},{230,262},{172,213},{238,269},{62,128},{195,294},{103,223},{109,232},{208,234},{29,122},{41,177},{62,249},{6,222},{15,117},{31,57},{152,251},{195,289},{19,104},{191,208},{121,237},{215,218},{69,120},{212,284},{82,150},{94,106},{145,162},{10,266},{191,214},{167,285},{265,270},{212,248},{56,64},{79,215},{2,160},{204,268},{26,283},{79,198},{84,251},{81,296},{86,272},{14,30},{58,81},{175,235},{246,297},{26,151},{111,137},{16,272},{189,239},{57,94},{15,234},{58,114},{42,128},{153,284},{108,221},{197,280},{29,212},{52,211},{49,56},{97,110},{151,237},{102,107},{78,193},{236,244},{137,243},{91,135},{108,139},{185,194},{93,246},{1,152},{66,127},{134,268},{97,236},{38,182},{90,191},{106,237},{138,184},{11,276},{50,157},{141,293},{87,260},{8,171},{35,293},{202,206},{182,290},{76,89},{56,280},{48,219},{22,114},{147,288},{21,153},{21,267},{176,185},{263,268},{210,221},{186,222},{130,298},{16,171},{22,299},{3,122},{97,219},{12,205},{5,279},{65,169},{1,90},{11,84},{146,167},{112,271},{94,108},{64,69},{63,221},{12,202},{100,253},{175,297},{162,223},{88,179},{60,114},{5,120},{217,252},{60,145},{119,248},{1,70},{66,156},{238,290},{165,206},{76,300},{86,294},{19,264},{54,249},{217,247},{33,248},{11,224},{170,213},{27,108},{88,273},{207,210},{67,141},{34,52},{48,96},{101,227},{26,130},{175,238},{53,286},{67,235},{64,207},{9,148},{93,218},{1,174},{98,235},{61,251},{257,276},{97,113},{27,33},{34,171},{160,173},{32,204},{24,54},{51,137},{167,182},{156,283},{22,159},{203,237},{113,211},{65,188},{240,281},{83,248},{152,264},{23,228},{106,192},{199,255},{52,187},{80,191},{192,252},{33,194},{23,160},{146,186},{35,199},{179,205},{27,295},{60,102},{34,93},{82,131},{71,205},{202,298},{64,211},{221,290},{103,178},{58,248},{110,135},{121,239},{123,297},{188,294},{94,196},{227,279},{36,101},{10,131},{16,86},{43,52},{200,242},{190,250},{39,255},{22,100},{74,134},{109,189},{39,129},{129,202},{85,106},{146,227},{41,122},{265,269},{165,256},{202,211},{205,248},{234,241},{134,151},{241,287},{148,262},{9,240},{77,179},{129,285},{32,272},{92,257},{103,118},{30,131},{56,278},{7,92},{34,256},{45,276},{96,147},{187,244},{131,132},{54,69},{130,293},{89,248},{14,165},{115,136},{35,269},{148,161},{22,60},{62,81},{100,299},{58,72},{26,211},{60,126},{161,298},{166,252},{62,181},{27,88},{31,133},{98,136},{61,245},{254,281},{120,168},{45,81},{187,249},{38,48},{177,212},{120,219},{70,104},{109,215},{11,78},{18,295},{37,285},{59,108},{46,166},{26,127},{49,117},{70,145},{52,246},{63,229},{126,187},{52,92},{182,210},{3,241},{55,238},{112,298},{70,170},{73,101},{21,272},{31,174},{173,194},{115,219},{58,195},{110,119},{32,257},{216,291},{286,296},{99,194},{4,297},{41,214},{136,139},{83,241},{86,141},{100,147},{168,270},{75,172},{76,211},{11,188},{185,249},{11,238},{24,279},{40,189},{23,196},{31,61},{221,289},{88,100},{99,191},{56,293},{87,212},{121,171},{115,249},{218,239},{79,140},{109,269},{64,91},{154,261},{31,171},{42,88},{10,262},{242,260},{171,261},{15,300},{43,140},{64,210},{33,125},{22,119},{82,130},{40,294},{118,248},{197,261},{48,267},{135,141},{179,215},{20,150},{19,58},{187,195},{155,266},{105,217},{81,180},{231,243},{31,68},{135,199},{228,289},{34,67},{5,238},{182,254},{18,61},{109,217},{118,147},{40,148},{17,198},{213,261},{216,279},{101,292},{201,250},{35,128},{102,184},{177,199},{7,125},{72,109},{105,118},{34,161},{31,230},{94,276},{22,136},{275,289},{148,206},{189,253},{238,281},{108,123},{88,174},{55,228},{1,266},{34,75},{235,280},{47,189},{21,186},{115,213},{235,248},{14,298},{13,242},{29,168},{140,190},{63,92},{126,279},{24,131},{123,261},{118,130},{17,153},{91,228},{83,258},{67,263},{28,268},{53,75},{118,221},{74,287},{152,285},{22,70},{82,143},{201,291},{204,290},{149,175},{114,214},{209,283},{32,248},{126,262},{127,282},{42,162},{72,160},{17,97},{75,180},{132,255},{39,240},{176,271},{29,283},{74,204},{114,286},{127,144},{259,291},{15,255},{91,118},{108,143},{97,205},{73,193},{246,271},{41,49},{110,137},{61,135},{139,230},{102,285},{69,157},{189,221},{34,110},{56,226},{170,208},{141,203},{78,244},{123,247},{19,153},{14,61},{45,71},{159,193},{38,187},{60,185},{92,247},{108,230},{163,265},{20,213},{50,286},{206,207},{68,73},{193,272},{43,144},{35,211},{148,172},{28,259},{210,271},{77,100},{23,32},{195,222},{106,262},{96,263},{34,133},{132,144},{29,193},{72,179},{2,126},{29,102},{75,182},{79,159},{16,189},{205,265},{131,239},{92,285},{11,65},{115,256},{19,261},{240,274},{154,230},{171,230},{223,251},{273,288},{7,142},{44,153},{35,296},{158,236},{231,299},{15,134},{120,125},{143,288},{82,173},{56,197},{135,174},{176,298},{105,149},{100,166},{12,135},{168,204},{123,180},{41,54},{153,222},{7,257},{71,201},{22,221},{33,257},{41,186},{189,284},{80,192},{103,202},{70,266},{151,154},{116,257},{137,162},{67,187},{60,234},{147,185},{8,200},{92,217},{30,43},{56,268},{104,153},{27,297},{63,80},{3,239},{154,190},{51,69},{114,175},{118,168},{26,94},{39,79},{144,187},{53,188},{216,299},{199,242},{155,269},{69,169},{94,157},{24,56},{108,215},{131,190},{174,292},{52,256},{60,273},{23,297},{109,149},{64,125},{233,265},{18,193}}
